500
    1    15    15
    2     2     2
    3    14    14
    4    10    10
    5    24    24
    6    34    34
    7    45    45
    8    24    24
    9    48    48
   10    29    29
   11    37    37
   12     7     7
   13    29    29
   14    13    13
   15    43    43
   16    45    45
   17    11    11
   18    44    44
   19    28    28
   20    14    14
   21     5     5
   22     9     9
   23    33    33
   24     7     7
   25    16    16
   26     5     5
   27    34    34
   28    22    22
   29    28    28
   30    13    13
   31    28    28
   32    26    26
   33    25    25
   34    38    38
   35    40    40
   36    32    32
   37    39    39
   38    12    12
   39    30    30
   40    39    39
   41     3     3
   42    25    25
   43    23    23
   44    31    31
   45    26    26
   46    26    26
   47     4     4
   48     8     8
   49    40    40
   50    23    23
   51    16    16
   52    34    34
   53     8     8
   54    42    42
   55     5     5
   56    21    21
   57     3     3
   58     2     2
   59    45    45
   60     8     8
   61    43    43
   62    33    33
   63    13    13
   64    34    34
   65    17    17
   66    20    20
   67    13    13
   68    21    21
   69    48    48
   70     1     1
   71    13    13
   72    39    39
   73    24    24
   74     5     5
   75    48    48
   76     7     7
   77    50    50
   78    26    26
   79    34    34
   80    17    17
   81    23    23
   82    10    10
   83     7     7
   84    21    21
   85     6     6
   86    25    25
   87    45    45
   88    33    33
   89    35    35
   90    20    20
   91    44    44
   92    41    41
   93    13    13
   94     6     6
   95    29    29
   96    48    48
   97    45    45
   98    44    44
   99     2     2
  100    21    21
  101    10    10
  102     9     9
  103    46    46
  104    24    24
  105     7     7
  106    37    37
  107    24    24
  108    45    45
  109    38    38
  110    40    40
  111    39    39
  112    46    46
  113    13    13
  114     8     8
  115     4     4
  116    48    48
  117     2     2
  118    24    24
  119     6     6
  120    13    13
  121    16    16
  122    44    44
  123    28    28
  124    26    26
  125    25    25
  126    47    47
  127    24    24
  128    35    35
  129    25    25
  130    42    42
  131    34    34
  132    49    49
  133    46    46
  134    45    45
  135    44    44
  136     5     5
  137    16    16
  138    28    28
  139    29    29
  140     3     3
  141    17    17
  142    33    33
  143    13    13
  144    29    29
  145     4     4
  146    41    41
  147     9     9
  148    17    17
  149     5     5
  150    20    20
  151     2     2
  152    20    20
  153    32    32
  154     2     2
  155    33    33
  156     1     1
  157    40    40
  158    12    12
  159    38    38
  160    47    47
  161    33    33
  162    39    39
  163    49    49
  164     8     8
  165    34    34
  166    27    27
  167    47    47
  168    30    30
  169    43    43
  170    15    15
  171    47    47
  172    36    36
  173     1     1
  174     8     8
  175    26    26
  176    27    27
  177    46    46
  178    22    22
  179    21    21
  180    38    38
  181    44    44
  182    18    18
  183    48    48
  184     5     5
  185    10    10
  186    35    35
  187    37    37
  188    30    30
  189    22    22
  190    38    38
  191    37    37
  192    16    16
  193    45    45
  194    43    43
  195    20    20
  196     2     2
  197    10    10
  198    36    36
  199    44    44
  200    36    36
  201     9     9
  202    22    22
  203    14    14
  204    21    21
  205    32    32
  206    28    28
  207    12    12
  208    19    19
  209    17    17
  210     3     3
  211    40    40
  212    25    25
  213     7     7
  214    20    20
  215    48    48
  216    38    38
  217    48    48
  218     2     2
  219     3     3
  220    38    38
  221    28    28
  222    23    23
  223    39    39
  224    32    32
  225     5     5
  226    47    47
  227    23    23
  228    35    35
  229    31    31
  230    46    46
  231    22    22
  232    45    45
  233    47    47
  234    15    15
  235    27    27
  236    21    21
  237    17    17
  238     8     8
  239    28    28
  240    47    47
  241     3     3
  242    45    45
  243    40    40
  244    22    22
  245    33    33
  246    10    10
  247     2     2
  248    35    35
  249     3     3
  250     7     7
  251    20    20
  252    40    40
  253    47    47
  254    40    40
  255    15    15
  256    18    18
  257    42    42
  258    43    43
  259    39    39
  260    30    30
  261    43    43
  262    28    28
  263    37    37
  264     1     1
  265    14    14
  266    32    32
  267    16    16
  268    24    24
  269    32    32
  270     1     1
  271    38    38
  272    19    19
  273    15    15
  274    24    24
  275     6     6
  276    37    37
  277     1     1
  278    35    35
  279    48    48
  280    13    13
  281    25    25
  282    26    26
  283    44    44
  284    46    46
  285    31    31
  286    25    25
  287     3     3
  288     5     5
  289    37    37
  290    42    42
  291     8     8
  292    16    16
  293    46    46
  294     5     5
  295    47    47
  296    21    21
  297    12    12
  298    28    28
  299    26    26
  300    44    44
  301    27    27
  302    26    26
  303    12    12
  304    10    10
  305    21    21
  306    43    43
  307    44    44
  308    29    29
  309     3     3
  310    38    38
  311    42    42
  312    44    44
  313    22    22
  314    13    13
  315    41    41
  316    35    35
  317    35    35
  318    23    23
  319    29    29
  320    39    39
  321    49    49
  322    28    28
  323    32    32
  324    39    39
  325    28    28
  326    42    42
  327    23    23
  328    33    33
  329    33    33
  330    14    14
  331     6     6
  332    35    35
  333    20    20
  334    47    47
  335    29    29
  336    38    38
  337    29    29
  338    48    48
  339    45    45
  340    15    15
  341    12    12
  342    16    16
  343     5     5
  344    34    34
  345     4     4
  346    20    20
  347    17    17
  348    34    34
  349     2     2
  350     3     3
  351    50    50
  352    46    46
  353    22    22
  354     5     5
  355    27    27
  356     2     2
  357    40    40
  358    36    36
  359    27    27
  360    20    20
  361    35    35
  362    29    29
  363     6     6
  364    39    39
  365    10    10
  366     9     9
  367    18    18
  368    17    17
  369    24    24
  370    49    49
  371    29    29
  372    23    23
  373     2     2
  374     1     1
  375    31    31
  376    46    46
  377    25    25
  378    35    35
  379    13    13
  380    21    21
  381    46    46
  382    14    14
  383     4     4
  384    21    21
  385    44    44
  386    25    25
  387    48    48
  388     8     8
  389    37    37
  390    42    42
  391     5     5
  392    29    29
  393    19    19
  394    18    18
  395    43    43
  396     4     4
  397     2     2
  398     6     6
  399    11    11
  400     2     2
  401    44    44
  402    28    28
  403     2     2
  404    19    19
  405    48    48
  406    28    28
  407    46    46
  408    18    18
  409    40    40
  410    14    14
  411    16    16
  412    46    46
  413    34    34
  414    29    29
  415    23    23
  416    43    43
  417    21    21
  418    16    16
  419    43    43
  420     3     3
  421    26    26
  422     3     3
  423     9     9
  424    45    45
  425    10    10
  426     5     5
  427    22    22
  428     1     1
  429    49    49
  430    21    21
  431    43    43
  432     4     4
  433    36    36
  434    29    29
  435    25    25
  436    35    35
  437    35    35
  438    33    33
  439    18    18
  440    47    47
  441     5     5
  442    25    25
  443    16    16
  444     8     8
  445    21    21
  446    31    31
  447    19    19
  448    48    48
  449    33    33
  450    40    40
  451    35    35
  452    11    11
  453    11    11
  454     2     2
  455    25    25
  456    45    45
  457    17    17
  458     6     6
  459    20    20
  460    36    36
  461    37    37
  462    38    38
  463     4     4
  464     5     5
  465    26    26
  466     2     2
  467    50    50
  468    45    45
  469    33    33
  470    25    25
  471    37    37
  472    38    38
  473    19    19
  474    20    20
  475    15    15
  476     6     6
  477    32    32
  478    13    13
  479    16    16
  480    16    16
  481    31    31
  482    47    47
  483    35    35
  484    25    25
  485    45    45
  486    26    26
  487    41    41
  488     6     6
  489     4     4
  490    39    39
  491    16    16
  492    32    32
  493    15    15
  494    24    24
  495    43    43
  496    19    19
  497    36    36
  498     9     9
  499    32    32
  500    41    41
10615
